
Gurobi 10.0.2 (win64) logging started Thu Jul  6 15:18:58 2023

Set parameter LogFile to value "Outputs/Logfiles/model_moo(Jul 06,1518).log"
Gurobi Optimizer version 10.0.2 build v10.0.2rc0 (win64)

CPU model: Intel(R) Core(TM) i5-8265U CPU @ 1.60GHz, instruction set [SSE2|AVX|AVX2]
Thread count: 4 physical cores, 8 logical processors, using up to 8 threads

Optimize a model with 24101 rows, 8060 columns and 44060 nonzeros
Model fingerprint: 0xfbb6454d
Variable types: 6000 continuous, 2060 integer (2060 binary)
Coefficient statistics:
  Matrix range     [1e+00, 1e+12]
  Objective range  [1e-04, 1e+05]
  Bounds range     [1e+00, 1e+00]
  RHS range        [2e+00, 2e+02]
Warning: Model contains large matrix coefficients
         Consider reformulating model or setting NumericFocus parameter
         to avoid numerical issues.

---------------------------------------------------------------------------
Multi-objectives: starting optimization with 2 objectives ... 
---------------------------------------------------------------------------

Multi-objectives: applying initial presolve ...
---------------------------------------------------------------------------

Presolve removed 22100 rows and 6000 columns
Presolve time: 0.08s
Presolved: 2001 rows and 2060 columns
---------------------------------------------------------------------------

Multi-objectives: optimize objective 1 (objective_re_1) ...
---------------------------------------------------------------------------

Found heuristic solution: objective 0.0000000
Presolve removed 2001 rows and 2060 columns
Presolve time: 0.02s
Presolve: All rows and columns removed

Explored 0 nodes (0 simplex iterations) in 0.19 seconds (0.02 work units)
Thread count was 1 (of 8 available processors)

Solution count 1: -9240 
No other solutions better than -9240

Optimal solution found (tolerance 1.00e-04)
Best objective -9.240000000000e+03, best bound -9.240000000000e+03, gap 0.0000%
---------------------------------------------------------------------------

Multi-objectives: optimize objective 2 (objective_cost_2) ...
---------------------------------------------------------------------------


Loaded user MIP start with objective 330000

Presolve removed 2000 rows and 2010 columns
Presolve time: 0.01s
Presolved: 2 rows, 50 columns, 100 nonzeros
Variable types: 0 continuous, 50 integer (46 binary)
Found heuristic solution: objective 260000.00000

Root relaxation: cutoff, 4 iterations, 0.01 seconds (0.00 work units)

    Nodes    |    Current Node    |     Objective Bounds      |     Work
 Expl Unexpl |  Obj  Depth IntInf | Incumbent    BestBd   Gap | It/Node Time

     0     0     cutoff    0      260000.000 260000.000  0.00%     -    0s

Explored 1 nodes (4 simplex iterations) in 0.30 seconds (0.02 work units)
Thread count was 8 (of 8 available processors)

Solution count 2: 260000 330000 

Optimal solution found (tolerance 1.00e-04)
Best objective 2.600000000000e+05, best bound 2.600000000000e+05, gap 0.0000%

---------------------------------------------------------------------------
Multi-objectives: solved in 0.32 seconds (0.02 work units), solution count 2


    Variable            X 
-------------------------
select[s16,i]            1 
select[s17,i]            1 
select[s8,i]            1 
select[s4,i]            1 
select[s20,i]            1 
deploy[o178,s4,i]          157 
deploy[o178,s8,i]          157 
deploy[o178,s16,i]          157 
deploy[o178,s17,i]          157 
deploy[o178,s20,i]          157 
deploy[o172,s4,i]            7 
deploy[o172,s8,i]            7 
deploy[o172,s16,i]            7 
deploy[o172,s17,i]            7 
deploy[o172,s20,i]            7 
deploy[o94,s4,i]            7 
deploy[o94,s8,i]            7 
deploy[o94,s16,i]            7 
deploy[o94,s17,i]            7 
deploy[o94,s20,i]            7 
deploy[o148,s4,i]            7 
deploy[o148,s8,i]            7 
deploy[o148,s16,i]            7 
deploy[o148,s17,i]            7 
deploy[o148,s20,i]            7 
deploy[o108,s4,i]           37 
deploy[o108,s8,i]           37 
deploy[o108,s16,i]           37 
deploy[o108,s17,i]           37 
deploy[o108,s20,i]           37 
deploy[o41,s4,i]          157 
deploy[o41,s8,i]          157 
deploy[o41,s16,i]          157 
deploy[o41,s17,i]          157 
deploy[o41,s20,i]          157 
deploy[o185,s4,i]          157 
deploy[o185,s8,i]          157 
deploy[o185,s16,i]          157 
deploy[o185,s17,i]          157 
deploy[o185,s20,i]          157 
deploy[o97,s4,i]            7 
deploy[o97,s8,i]            7 
deploy[o97,s16,i]            7 
deploy[o97,s17,i]            7 
deploy[o97,s20,i]            7 
deploy[o106,s4,i]            7 
deploy[o106,s8,i]            7 
deploy[o106,s16,i]            7 
deploy[o106,s17,i]            7 
deploy[o106,s20,i]            7 
deploy[o175,s4,i]           37 
deploy[o175,s8,i]           37 
deploy[o175,s16,i]           37 
deploy[o175,s17,i]           37 
deploy[o175,s20,i]           37 
deploy[o28,s4,i]           37 
deploy[o28,s8,i]           37 
deploy[o28,s16,i]           37 
deploy[o28,s17,i]           37 
deploy[o28,s20,i]           37 
deploy[o27,s4,i]           37 
deploy[o27,s8,i]           37 
deploy[o27,s16,i]           37 
deploy[o27,s17,i]           37 
deploy[o27,s20,i]           37 
deploy[o9,s4,i]           37 
deploy[o9,s8,i]           37 
deploy[o9,s16,i]           37 
deploy[o9,s17,i]           37 
deploy[o9,s20,i]           37 
deploy[o139,s4,i]           37 
deploy[o139,s8,i]           37 
deploy[o139,s16,i]           37 
deploy[o139,s17,i]           37 
deploy[o139,s20,i]           37 
deploy[o104,s4,i]            7 
deploy[o104,s8,i]            7 
deploy[o104,s16,i]            7 
deploy[o104,s17,i]            7 
deploy[o104,s20,i]            7 
deploy[o91,s4,i]            7 
deploy[o91,s8,i]            7 
deploy[o91,s16,i]            7 
deploy[o91,s17,i]            7 
deploy[o91,s20,i]            7 
deploy[o138,s4,i]          157 
deploy[o138,s8,i]          157 
deploy[o138,s16,i]          157 
deploy[o138,s17,i]          157 
deploy[o138,s20,i]          157 
deploy[o183,s4,i]            7 
deploy[o183,s8,i]            7 
deploy[o183,s16,i]            7 
deploy[o183,s17,i]            7 
deploy[o183,s20,i]            7 
deploy[o11,s4,i]          157 
deploy[o11,s8,i]          157 
deploy[o11,s16,i]          157 
deploy[o11,s17,i]          157 
deploy[o11,s20,i]          157 
deploy[o181,s4,i]          157 
deploy[o181,s8,i]          157 
deploy[o181,s16,i]          157 
deploy[o181,s17,i]          157 
deploy[o181,s20,i]          157 
deploy[o159,s4,i]           37 
deploy[o159,s8,i]           37 
deploy[o159,s16,i]           37 
deploy[o159,s17,i]           37 
deploy[o159,s20,i]           37 
deploy[o48,s4,i]            7 
deploy[o48,s8,i]            7 
deploy[o48,s16,i]            7 
deploy[o48,s17,i]            7 
deploy[o48,s20,i]            7 
deploy[o129,s4,i]          157 
deploy[o129,s8,i]          157 
deploy[o129,s16,i]          157 
deploy[o129,s17,i]          157 
deploy[o129,s20,i]          157 
deploy[o107,s4,i]           37 
deploy[o107,s8,i]           37 
deploy[o107,s16,i]           37 
deploy[o107,s17,i]           37 
deploy[o107,s20,i]           37 
deploy[o22,s4,i]          157 
deploy[o22,s8,i]          157 
deploy[o22,s16,i]          157 
deploy[o22,s17,i]          157 
deploy[o22,s20,i]          157 
deploy[o187,s4,i]            7 
deploy[o187,s8,i]            7 
deploy[o187,s16,i]            7 
deploy[o187,s17,i]            7 
deploy[o187,s20,i]            7 
deploy[o116,s4,i]           37 
deploy[o116,s8,i]           37 
deploy[o116,s16,i]           37 
deploy[o116,s17,i]           37 
deploy[o116,s20,i]           37 
deploy[o82,s4,i]           37 
deploy[o82,s8,i]           37 
deploy[o82,s16,i]           37 
deploy[o82,s17,i]           37 
deploy[o82,s20,i]           37 
deploy[o43,s4,i]          157 
deploy[o43,s8,i]          157 
deploy[o43,s16,i]          157 
deploy[o43,s17,i]          157 
deploy[o43,s20,i]          157 
deploy[o78,s4,i]           37 
deploy[o78,s8,i]           37 
deploy[o78,s16,i]           37 
deploy[o78,s17,i]           37 
deploy[o78,s20,i]           37 
